
Gurobi 8.1.1 (linux64, Python) logging started Wed Jul 24 11:04:40 2019

Academic license - for non-commercial use only
Changed value of parameter MIPGap to 0.01
   Prev: 0.0001  Min: 0.0  Max: 1e+100  Default: 0.0001
Changed value of parameter Threads to 1
   Prev: 0  Min: 0  Max: 1024  Default: 0
Changed value of parameter Presolve to 2
   Prev: -1  Min: -1  Max: 2  Default: -1
Changed value of parameter MIPFocus to 1
   Prev: 0  Min: 0  Max: 3  Default: 0
Changed value of parameter Cuts to 1
   Prev: -1  Min: -1  Max: 3  Default: -1
Changed value of parameter Method to 4
   Prev: -1  Min: -1  Max: 5  Default: -1
Changed value of parameter TimeLimit to 12600.0
   Prev: 1e+100  Min: 0.0  Max: 1e+100  Default: 1e+100
Optimize a model with 1168 rows, 2106 columns and 4212 nonzeros
Variable types: 0 continuous, 2106 integer (1053 binary)
Coefficient statistics:
  Matrix range     [4e-02, 1e+00]
  Objective range  [2e+00, 9e+00]
  Bounds range     [1e+00, 2e+01]
  RHS range        [1e+00, 2e+01]
Found heuristic solution: objective 14.0000000
Presolve removed 736 rows and 818 columns
Presolve time: 0.02s
Presolved: 432 rows, 1288 columns, 2576 nonzeros
Found heuristic solution: objective 12.0000000
Variable types: 0 continuous, 1288 integer (454 binary)
Presolve removed 327 rows and 494 columns
Presolved: 105 rows, 794 columns, 1581 nonzeros


Root relaxation: objective 2.900000e+00, 40 iterations, 0.00 seconds

    Nodes    |    Current Node    |     Objective Bounds      |     Work
 Expl Unexpl |  Obj  Depth IntInf | Incumbent    BestBd   Gap | It/Node Time

     0     0    2.90000    0    2   12.00000    2.90000  75.8%     -    0s
H    0     0                       9.0000000    2.90000  67.8%     -    0s
     0     0    3.03750    0    9    9.00000    3.03750  66.3%     -    0s
     0     0    3.21663    0   22    9.00000    3.21663  64.3%     -    0s
     0     0    3.42816    0   21    9.00000    3.42816  61.9%     -    0s
     0     0    3.55000    0   14    9.00000    3.55000  60.6%     -    0s
     0     0    3.59846    0   18    9.00000    3.59846  60.0%     -    0s
     0     0    3.61887    0   30    9.00000    3.61887  59.8%     -    0s
     0     0    3.68461    0   43    9.00000    3.68461  59.1%     -    0s
     0     0    3.85425    0   23    9.00000    3.85425  57.2%     -    0s
     0     2    3.85497    0   21    9.00000    3.85497  57.2%     -    0s

Cutting planes:
  Gomory: 3
  Implied bound: 1
  MIR: 9
  StrongCG: 2
  Flow cover: 10
  Zero half: 2

Explored 31 nodes (525 simplex iterations) in 0.29 seconds
Thread count was 1 (of 56 available processors)

Solution count 2: 9 12 

Optimal solution found (tolerance 1.00e-02)
Best objective 9.000000000000e+00, best bound 9.000000000000e+00, gap 0.0000%
Parameter SolutionNumber unchanged
   Value: 0  Min: 0  Max: 2000000000  Default: 0
Changed value of parameter SolutionNumber to 1
   Prev: 0  Min: 0  Max: 2000000000  Default: 0
